Route #1: 1 6 61 29 30 49 33
Route #2: 1 14 56 45 17 41 32 47
Route #3: 1 23 35 40 3 63 22 53 36 7
Route #4: 1 38 11 25 44 18 13 55 15 42 12
Route #5: 1 48 10 16 31 9 5
Route #6: 1 43 62 20 52 34 39
Route #7: 1 51 19 2 28 37 21 8
Route #8: 1 26 27 59 58 54 24
Route #9: 1 60 57 50 4
Route #10: 1 46
cost 1705
